(declare-sort fun1 0)
(declare-sort fun12 0)
(declare-datatype Nat ((zero) (succ (p Nat))))
(declare-datatype list ((nil) (cons (head Nat) (tail list))))
(declare-fun lam (Nat) fun12)
(declare-const lam2 fun1)
(declare-fun apply1 (fun1 Nat) fun12)
(declare-fun apply12 (fun12 Nat) Bool)
(define-fun-rec
  take
  ((x Nat) (y list)) list
  (match x
    ((zero nil)
     ((succ z)
      (match y
        ((nil nil)
         ((cons z2 xs) (cons z2 (take z xs)))))))))
(define-fun-rec
  plus
  ((x Nat) (y Nat)) Nat
  (match x
    ((zero y)
     ((succ z) (succ (plus z y))))))
(define-fun-rec
  minus
  ((x Nat) (y Nat)) Nat
  (match x
    ((zero zero)
     ((succ z)
      (match y
        ((zero zero)
         ((succ y2) (minus z y2))))))))
(define-fun-rec
  nmsorttd-half1
  ((x Nat)) Nat
  (ite
    (= x (succ zero)) zero
    (match x
      ((zero zero)
       ((succ y)
        (plus (succ zero)
          (nmsorttd-half1 (minus (succ y) (succ (succ zero))))))))))
(define-fun-rec
  leq
  ((x Nat) (y Nat)) Bool
  (match x
    ((zero true)
     ((succ z)
      (match y
        ((zero false)
         ((succ x2) (leq z x2))))))))
(define-fun-rec
  lmerge
  ((x list) (y list)) list
  (match x
    ((nil y)
     ((cons z x2)
      (match y
        ((nil (cons z x2))
         ((cons x3 x4)
          (ite
            (leq z x3) (cons z (lmerge x2 (cons x3 x4)))
            (cons x3 (lmerge (cons z x2) x4))))))))))
(define-fun-rec
  length
  ((x list)) Nat
  (match x
    ((nil zero)
     ((cons y l) (plus (succ zero) (length l))))))
(define-fun-rec
  elem
  ((x Nat) (y list)) Bool
  (match y
    ((nil false)
     ((cons z xs) (or (= z x) (elem x xs))))))
(define-fun-rec
  drop
  ((x Nat) (y list)) list
  (match x
    ((zero y)
     ((succ z)
      (match y
        ((nil nil)
         ((cons z2 xs1) (drop z xs1))))))))
(define-fun-rec
  nmsorttd
  ((x list)) list
  (match x
    ((nil nil)
     ((cons y z)
      (match z
        ((nil (cons y nil))
         ((cons x2 x3)
          (let ((k (nmsorttd-half1 (length (cons y (cons x2 x3))))))
            (lmerge (nmsorttd (take k (cons y (cons x2 x3))))
              (nmsorttd (drop k (cons y (cons x2 x3)))))))))))))
(define-fun-rec
  deleteBy
  ((x fun1) (y Nat) (z list)) list
  (match z
    ((nil nil)
     ((cons y2 ys)
      (ite (apply12 (apply1 x y) y2) ys (cons y2 (deleteBy x y ys)))))))
(define-fun-rec
  isPermutation
  ((x list) (y list)) Bool
  (match x
    ((nil
      (match y
        ((nil true)
         ((cons z x2) false))))
     ((cons x3 xs)
      (and (elem x3 y) (isPermutation xs (deleteBy lam2 x3 y)))))))
(assert
  (forall ((x Nat) (y Nat) (z Nat))
    (= (plus x (plus y z)) (plus (plus x y) z))))
(assert (forall ((x Nat) (y Nat)) (= (plus x y) (plus y x))))
(assert (forall ((x Nat)) (= (plus x zero) x)))
(assert (forall ((x Nat)) (= (plus zero x) x)))
(assert (forall ((x4 Nat)) (= (apply1 lam2 x4) (lam x4))))
(assert
  (forall ((x4 Nat) (x5 Nat)) (= (apply12 (lam x4) x5) (= x4 x5))))
(assert
  (not (forall ((xs list)) (isPermutation (nmsorttd xs) xs))))
(check-sat)
